c input_v3/product/cnf_noALO_v3/10x10_120.cnf
s SATISFIABLE
c process-time: 0.01 seconds
-----
c input_v3/product/cnf_noALO_v3/10x10_121.cnf
s SATISFIABLE
c process-time: 0.01 seconds
-----
c input_v3/product/cnf_noALO_v3/10x10_122.cnf
s SATISFIABLE
c process-time: 0.01 seconds
-----
c input_v3/product/cnf_noALO_v3/10x10_123.cnf
s SATISFIABLE
c process-time: 0.02 seconds
-----
c input_v3/product/cnf_noALO_v3/10x10_124.cnf
s SATISFIABLE
c process-time: 0.02 seconds
-----
c input_v3/product/cnf_noALO_v3/10x10_130.cnf
s SATISFIABLE
c process-time: 0.02 seconds
-----
c input_v3/product/cnf_noALO_v3/10x10_131.cnf
s SATISFIABLE
c process-time: 0.00 seconds
-----
c input_v3/product/cnf_noALO_v3/10x10_132.cnf
s SATISFIABLE
c process-time: 0.01 seconds
-----
c input_v3/product/cnf_noALO_v3/10x10_133.cnf
s SATISFIABLE
c process-time: 0.02 seconds
-----
c input_v3/product/cnf_noALO_v3/10x10_134.cnf
s SATISFIABLE
c process-time: 0.02 seconds
-----
c input_v3/product/cnf_noALO_v3/10x10_135.cnf
s SATISFIABLE
c process-time: 0.03 seconds
-----
c input_v3/product/cnf_noALO_v3/10x10_136.cnf
s SATISFIABLE
c process-time: 0.04 seconds
-----
c input_v3/product/cnf_noALO_v3/10x10_137.cnf
s SATISFIABLE
c process-time: 0.01 seconds
-----
c input_v3/product/cnf_noALO_v3/10x10_138.cnf
s SATISFIABLE
c process-time: 0.01 seconds
-----
c input_v3/product/cnf_noALO_v3/10x10_139.cnf
s SATISFIABLE
c process-time: 0.01 seconds
-----
c input_v3/product/cnf_noALO_v3/10x10_140.cnf
s SATISFIABLE
c process-time: 0.01 seconds
-----
c input_v3/product/cnf_noALO_v3/10x10_141.cnf
s SATISFIABLE
c process-time: 0.01 seconds
-----
c input_v3/product/cnf_noALO_v3/10x10_142.cnf
s SATISFIABLE
c process-time: 0.03 seconds
-----
c input_v3/product/cnf_noALO_v3/10x10_143.cnf
s SATISFIABLE
c process-time: 0.03 seconds
-----
c input_v3/product/cnf_noALO_v3/10x10_144.cnf
s SATISFIABLE
c process-time: 0.01 seconds
-----
c input_v3/product/cnf_noALO_v3/10x10_145.cnf
s SATISFIABLE
c process-time: 0.02 seconds
-----
c input_v3/product/cnf_noALO_v3/10x15_387.cnf
s SATISFIABLE
c process-time: 0.07 seconds
-----
c input_v3/product/cnf_noALO_v3/10x15_388.cnf
s SATISFIABLE
c process-time: 0.40 seconds
-----
c input_v3/product/cnf_noALO_v3/10x15_389.cnf
s SATISFIABLE
c process-time: 0.31 seconds
-----
c input_v3/product/cnf_noALO_v3/10x15_390.cnf
s SATISFIABLE
c process-time: 1s 0.64 seconds
-----
c input_v3/product/cnf_noALO_v3/10x15_396.cnf
s SATISFIABLE
c process-time: 0.18 seconds
-----
c input_v3/product/cnf_noALO_v3/10x15_397.cnf
s SATISFIABLE
c process-time: 0.11 seconds
-----
c input_v3/product/cnf_noALO_v3/10x15_398.cnf
s SATISFIABLE
c process-time: 3s 2.58 seconds
-----
c input_v3/product/cnf_noALO_v3/10x15_399.cnf
s SATISFIABLE
c process-time: 0.22 seconds
-----
c input_v3/product/cnf_noALO_v3/10x15_400.cnf
s SATISFIABLE
c process-time: 0.25 seconds
-----
c input_v3/product/cnf_noALO_v3/10x18_186.cnf
s SATISFIABLE
c process-time: 0.19 seconds
-----
c input_v3/product/cnf_noALO_v3/10x18_187.cnf
s SATISFIABLE
c process-time: 6s 6.13 seconds
-----
c input_v3/product/cnf_noALO_v3/10x18_198.cnf
s SATISFIABLE
c process-time: 0.03 seconds
-----
c input_v3/product/cnf_noALO_v3/10x18_199.cnf
s SATISFIABLE
c process-time: 0.07 seconds
-----
c input_v3/product/cnf_noALO_v3/10x18_200.cnf
s SATISFIABLE
c process-time: 1s 0.58 seconds
-----
c input_v3/product/cnf_noALO_v3/10x18_208.cnf
s SATISFIABLE
c process-time: 0.03 seconds
-----
c input_v3/product/cnf_noALO_v3/10x18_209.cnf
s SATISFIABLE
c process-time: 0.31 seconds
-----
c input_v3/product/cnf_noALO_v3/10x18_414.cnf
s SATISFIABLE
c process-time: 0.09 seconds
-----
c input_v3/product/cnf_noALO_v3/10x18_415.cnf
s SATISFIABLE
c process-time: 0.14 seconds
-----
c input_v3/product/cnf_noALO_v3/10x18_416.cnf
s SATISFIABLE
c process-time: 0.21 seconds
-----
c input_v3/product/cnf_noALO_v3/10x18_417.cnf
s SATISFIABLE
c process-time: 0.35 seconds
-----
c input_v3/product/cnf_noALO_v3/11x11_120.cnf
s SATISFIABLE
c process-time: 0.01 seconds
-----
c input_v3/product/cnf_noALO_v3/11x11_121.cnf
s SATISFIABLE
c process-time: 0.01 seconds
-----
c input_v3/product/cnf_noALO_v3/11x11_122.cnf
s SATISFIABLE
c process-time: 0.01 seconds
-----
c input_v3/product/cnf_noALO_v3/11x11_123.cnf
s SATISFIABLE
c process-time: 0.02 seconds
-----
c input_v3/product/cnf_noALO_v3/11x11_124.cnf
s SATISFIABLE
c process-time: 0.01 seconds
-----
c input_v3/product/cnf_noALO_v3/11x11_130.cnf
s SATISFIABLE
c process-time: 0.01 seconds
-----
c input_v3/product/cnf_noALO_v3/11x11_131.cnf
s SATISFIABLE
c process-time: 0.01 seconds
-----
c input_v3/product/cnf_noALO_v3/11x11_132.cnf
s SATISFIABLE
c process-time: 0.20 seconds
-----
c input_v3/product/cnf_noALO_v3/11x11_133.cnf
s SATISFIABLE
c process-time: 0.01 seconds
-----
c input_v3/product/cnf_noALO_v3/11x11_134.cnf
s SATISFIABLE
c process-time: 0.01 seconds
-----
c input_v3/product/cnf_noALO_v3/11x11_135.cnf
s SATISFIABLE
c process-time: 0.01 seconds
-----
c input_v3/product/cnf_noALO_v3/11x11_136.cnf
s SATISFIABLE
c process-time: 0.01 seconds
-----
c input_v3/product/cnf_noALO_v3/11x11_137.cnf
s SATISFIABLE
c process-time: 0.03 seconds
-----
c input_v3/product/cnf_noALO_v3/11x11_138.cnf
s SATISFIABLE
c process-time: 0.01 seconds
-----
c input_v3/product/cnf_noALO_v3/11x11_139.cnf
s SATISFIABLE
c process-time: 0.01 seconds
-----
c input_v3/product/cnf_noALO_v3/11x11_140.cnf
s SATISFIABLE
c process-time: 0.02 seconds
-----
c input_v3/product/cnf_noALO_v3/11x11_141.cnf
s SATISFIABLE
c process-time: 0.02 seconds
-----
c input_v3/product/cnf_noALO_v3/11x11_142.cnf
s SATISFIABLE
c process-time: 0.04 seconds
-----
c input_v3/product/cnf_noALO_v3/11x11_143.cnf
s SATISFIABLE
c process-time: 0.06 seconds
-----
c input_v3/product/cnf_noALO_v3/11x11_144.cnf
s SATISFIABLE
c process-time: 0.03 seconds
-----
c input_v3/product/cnf_noALO_v3/11x11_145.cnf
s SATISFIABLE
c process-time: 0.01 seconds
-----
c input_v3/product/cnf_noALO_v3/12x12_120.cnf
s SATISFIABLE
c process-time: 0.02 seconds
-----
c input_v3/product/cnf_noALO_v3/12x12_121.cnf
s SATISFIABLE
c process-time: 0.41 seconds
-----
c input_v3/product/cnf_noALO_v3/12x12_122.cnf
s SATISFIABLE
c process-time: 0.05 seconds
-----
c input_v3/product/cnf_noALO_v3/12x12_123.cnf
s SATISFIABLE
c process-time: 0.01 seconds
-----
c input_v3/product/cnf_noALO_v3/12x12_124.cnf
s SATISFIABLE
c process-time: 0.04 seconds
-----
c input_v3/product/cnf_noALO_v3/12x12_130.cnf
s SATISFIABLE
c process-time: 0.02 seconds
-----
c input_v3/product/cnf_noALO_v3/12x12_131.cnf
s SATISFIABLE
c process-time: 0.18 seconds
-----
c input_v3/product/cnf_noALO_v3/12x12_132.cnf
s SATISFIABLE
c process-time: 0.03 seconds
-----
c input_v3/product/cnf_noALO_v3/12x12_133.cnf
s SATISFIABLE
c process-time: 0.02 seconds
-----
c input_v3/product/cnf_noALO_v3/12x12_134.cnf
s SATISFIABLE
c process-time: 0.02 seconds
-----
c input_v3/product/cnf_noALO_v3/12x12_135.cnf
s SATISFIABLE
c process-time: 0.03 seconds
-----
c input_v3/product/cnf_noALO_v3/12x12_136.cnf
s SATISFIABLE
c process-time: 0.06 seconds
-----
c input_v3/product/cnf_noALO_v3/12x12_137.cnf
s SATISFIABLE
c process-time: 0.02 seconds
-----
c input_v3/product/cnf_noALO_v3/12x12_138.cnf
s SATISFIABLE
c process-time: 0.01 seconds
-----
c input_v3/product/cnf_noALO_v3/12x12_139.cnf
s SATISFIABLE
c process-time: 0.02 seconds
-----
c input_v3/product/cnf_noALO_v3/12x12_140.cnf
s SATISFIABLE
c process-time: 0.04 seconds
-----
c input_v3/product/cnf_noALO_v3/12x12_141.cnf
s SATISFIABLE
c process-time: 0.01 seconds
-----
c input_v3/product/cnf_noALO_v3/12x12_142.cnf
s SATISFIABLE
c process-time: 0.04 seconds
-----
c input_v3/product/cnf_noALO_v3/12x12_143.cnf
s SATISFIABLE
c process-time: 0.02 seconds
-----
c input_v3/product/cnf_noALO_v3/12x12_144.cnf
s SATISFIABLE
c process-time: 0.04 seconds
-----
c input_v3/product/cnf_noALO_v3/12x12_145.cnf
s SATISFIABLE
c process-time: 0.04 seconds
-----
c input_v3/product/cnf_noALO_v3/12x15_39.cnf
s SATISFIABLE
c process-time: 0.04 seconds
-----
c input_v3/product/cnf_noALO_v3/12x15_43.cnf
s SATISFIABLE
c process-time: 0.33 seconds
-----
c input_v3/product/cnf_noALO_v3/12x15_45.cnf
s SATISFIABLE
c process-time: 1s 1.32 seconds
-----
c input_v3/product/cnf_noALO_v3/12x15_46.cnf
s SATISFIABLE
c process-time: 0.12 seconds
-----
c input_v3/product/cnf_noALO_v3/12x23_210.cnf
s SATISFIABLE
c process-time: 0.07 seconds
-----
c input_v3/product/cnf_noALO_v3/13x13_120.cnf
s SATISFIABLE
c process-time: 0.02 seconds
-----
c input_v3/product/cnf_noALO_v3/13x13_121.cnf
s SATISFIABLE
c process-time: 0.02 seconds
-----
c input_v3/product/cnf_noALO_v3/13x13_122.cnf
s SATISFIABLE
c process-time: 0.39 seconds
-----
c input_v3/product/cnf_noALO_v3/13x13_123.cnf
s SATISFIABLE
c process-time: 0.01 seconds
-----
c input_v3/product/cnf_noALO_v3/13x13_124.cnf
s SATISFIABLE
c process-time: 0.14 seconds
-----
c input_v3/product/cnf_noALO_v3/13x13_130.cnf
s SATISFIABLE
c process-time: 0.48 seconds
-----
c input_v3/product/cnf_noALO_v3/13x13_131.cnf
s SATISFIABLE
c process-time: 0.03 seconds
-----
c input_v3/product/cnf_noALO_v3/13x13_132.cnf
s SATISFIABLE
c process-time: 0.18 seconds
-----
c input_v3/product/cnf_noALO_v3/13x13_133.cnf
s SATISFIABLE
c process-time: 1s 0.60 seconds
-----
c input_v3/product/cnf_noALO_v3/13x13_134.cnf
s SATISFIABLE
c process-time: 2s 2.06 seconds
-----
c input_v3/product/cnf_noALO_v3/13x13_135.cnf
s SATISFIABLE
c process-time: 0.40 seconds
-----
c input_v3/product/cnf_noALO_v3/13x13_136.cnf
s SATISFIABLE
c process-time: 0.25 seconds
-----
c input_v3/product/cnf_noALO_v3/13x13_137.cnf
s SATISFIABLE
c process-time: 0.15 seconds
-----
c input_v3/product/cnf_noALO_v3/13x13_138.cnf
s SATISFIABLE
c process-time: 0.03 seconds
-----
c input_v3/product/cnf_noALO_v3/13x13_139.cnf
s SATISFIABLE
c process-time: 0.07 seconds
-----
c input_v3/product/cnf_noALO_v3/13x13_140.cnf
s SATISFIABLE
c process-time: 0.01 seconds
-----
c input_v3/product/cnf_noALO_v3/13x13_141.cnf
s SATISFIABLE
c process-time: 0.01 seconds
-----
c input_v3/product/cnf_noALO_v3/13x13_142.cnf
s SATISFIABLE
c process-time: 1s 0.81 seconds
-----
c input_v3/product/cnf_noALO_v3/13x13_143.cnf
s SATISFIABLE
c process-time: 0.42 seconds
-----
c input_v3/product/cnf_noALO_v3/13x13_144.cnf
s SATISFIABLE
c process-time: 0.02 seconds
-----
c input_v3/product/cnf_noALO_v3/13x13_145.cnf
s SATISFIABLE
c process-time: 0.03 seconds
-----
c input_v3/product/cnf_noALO_v3/14x14_120.cnf
s SATISFIABLE
c process-time: 1s 0.56 seconds
-----
c input_v3/product/cnf_noALO_v3/14x14_121.cnf
s SATISFIABLE
c process-time: 0.05 seconds
-----
c input_v3/product/cnf_noALO_v3/14x14_122.cnf
s SATISFIABLE
c process-time: 0.17 seconds
-----
c input_v3/product/cnf_noALO_v3/14x14_123.cnf
s SATISFIABLE
c process-time: 0.28 seconds
-----
c input_v3/product/cnf_noALO_v3/14x14_124.cnf
s SATISFIABLE
c process-time: 0.05 seconds
-----
c input_v3/product/cnf_noALO_v3/14x14_130.cnf
s SATISFIABLE
c process-time: 0.02 seconds
-----
c input_v3/product/cnf_noALO_v3/14x14_131.cnf
s SATISFIABLE
c process-time: 0.05 seconds
-----
c input_v3/product/cnf_noALO_v3/14x14_132.cnf
s SATISFIABLE
c process-time: 0.03 seconds
-----
c input_v3/product/cnf_noALO_v3/14x14_133.cnf
s SATISFIABLE
c process-time: 0.24 seconds
-----
c input_v3/product/cnf_noALO_v3/14x14_134.cnf
s SATISFIABLE
c process-time: 0.49 seconds
-----
c input_v3/product/cnf_noALO_v3/14x14_135.cnf
s SATISFIABLE
c process-time: 0.07 seconds
-----
c input_v3/product/cnf_noALO_v3/14x14_136.cnf
s SATISFIABLE
c process-time: 0.30 seconds
-----
c input_v3/product/cnf_noALO_v3/14x14_137.cnf
s SATISFIABLE
c process-time: 0.03 seconds
-----
c input_v3/product/cnf_noALO_v3/14x14_138.cnf
s SATISFIABLE
c process-time: 0.08 seconds
-----
c input_v3/product/cnf_noALO_v3/14x14_139.cnf
s SATISFIABLE
c process-time: 1s 0.59 seconds
-----
c input_v3/product/cnf_noALO_v3/14x14_140.cnf
s SATISFIABLE
c process-time: 0.16 seconds
-----
c input_v3/product/cnf_noALO_v3/14x14_141.cnf
s SATISFIABLE
c process-time: 1s 0.59 seconds
-----
c input_v3/product/cnf_noALO_v3/14x14_142.cnf
s SATISFIABLE
c process-time: 0.03 seconds
-----
c input_v3/product/cnf_noALO_v3/14x14_143.cnf
s SATISFIABLE
c process-time: 0.03 seconds
-----
c input_v3/product/cnf_noALO_v3/14x14_144.cnf
s SATISFIABLE
c process-time: 0.10 seconds
-----
c input_v3/product/cnf_noALO_v3/14x14_145.cnf
s SATISFIABLE
c process-time: 0.16 seconds
-----
c input_v3/product/cnf_noALO_v3/14x24_105.cnf
s SATISFIABLE
c process-time: 10s 9.79 seconds
-----
c input_v3/product/cnf_noALO_v3/14x24_110.cnf
s SATISFIABLE
c process-time: 2s 2.01 seconds
-----
c input_v3/product/cnf_noALO_v3/14x24_113.cnf
s SATISFIABLE
c process-time: 2s 1.66 seconds
-----
c input_v3/product/cnf_noALO_v3/14x24_117.cnf
s SATISFIABLE
c process-time: 8s 7.65 seconds
-----
c input_v3/product/cnf_noALO_v3/14x24_129.cnf
s SATISFIABLE
c process-time: 1m 52s 111.51 seconds
-----
c input_v3/product/cnf_noALO_v3/14x24_139.cnf
s SATISFIABLE
c process-time: 7s 6.58 seconds
-----
c input_v3/product/cnf_noALO_v3/14x24_147.cnf
s SATISFIABLE
c process-time: 4s 3.65 seconds
-----
c input_v3/product/cnf_noALO_v3/14x24_148.cnf
s SATISFIABLE
c process-time: 55s 55.33 seconds
-----
c input_v3/product/cnf_noALO_v3/14x24_157.cnf
s SATISFIABLE
c process-time: 4s 4.41 seconds
-----
c input_v3/product/cnf_noALO_v3/14x24_158.cnf
s SATISFIABLE
c process-time: 4s 4.04 seconds
-----
c input_v3/product/cnf_noALO_v3/14x24_169.cnf
s SATISFIABLE
c process-time: 11m 57s 716.80 seconds
-----
c input_v3/product/cnf_noALO_v3/14x24_179.cnf
s SATISFIABLE
c process-time: 1s 1.04 seconds
-----
c input_v3/product/cnf_noALO_v3/14x24_188.cnf
s SATISFIABLE
c process-time: 12s 11.79 seconds
-----
c input_v3/product/cnf_noALO_v3/14x24_189.cnf
s SATISFIABLE
c process-time: 3s 3.26 seconds
-----
c input_v3/product/cnf_noALO_v3/14x24_190.cnf
s SATISFIABLE
c process-time: 1m 27s 86.87 seconds
-----
c input_v3/product/cnf_noALO_v3/14x24_199.cnf
s SATISFIABLE
c process-time: 32s 32.27 seconds
-----
c input_v3/product/cnf_noALO_v3/14x24_200.cnf
s SATISFIABLE
c process-time: 4m 2s 241.67 seconds
-----
c input_v3/product/cnf_noALO_v3/14x24_208.cnf
s SATISFIABLE
c process-time: 10s 9.62 seconds
-----
c input_v3/product/cnf_noALO_v3/14x24_209.cnf
s SATISFIABLE
c process-time: 3s 3.46 seconds
-----
c input_v3/product/cnf_noALO_v3/14x24_218.cnf
s SATISFIABLE
c process-time: 11s 10.69 seconds
-----
c input_v3/product/cnf_noALO_v3/14x24_219.cnf
s SATISFIABLE
c process-time: 19s 19.26 seconds
-----
c input_v3/product/cnf_noALO_v3/14x24_418.cnf
s SATISFIABLE
c process-time: 15s 15.20 seconds
-----
c input_v3/product/cnf_noALO_v3/14x24_419.cnf
s SATISFIABLE
c process-time: 3s 3.15 seconds
-----
c input_v3/product/cnf_noALO_v3/14x24_420.cnf
s SATISFIABLE
c process-time: 4m 10s 249.51 seconds
-----
c input_v3/product/cnf_noALO_v3/15x15_120.cnf
s SATISFIABLE
c process-time: 1s 0.56 seconds
-----
c input_v3/product/cnf_noALO_v3/15x15_121.cnf
s SATISFIABLE
c process-time: 0.31 seconds
-----
c input_v3/product/cnf_noALO_v3/15x15_122.cnf
s SATISFIABLE
c process-time: 0.42 seconds
-----
c input_v3/product/cnf_noALO_v3/15x15_123.cnf
s SATISFIABLE
c process-time: 0.28 seconds
-----
c input_v3/product/cnf_noALO_v3/15x15_124.cnf
s SATISFIABLE
c process-time: 2s 1.69 seconds
-----
c input_v3/product/cnf_noALO_v3/15x15_130.cnf
s SATISFIABLE
c process-time: 0.12 seconds
-----
c input_v3/product/cnf_noALO_v3/15x15_131.cnf
s SATISFIABLE
c process-time: 1s 0.51 seconds
-----
c input_v3/product/cnf_noALO_v3/15x15_132.cnf
s SATISFIABLE
c process-time: 0.07 seconds
-----
c input_v3/product/cnf_noALO_v3/15x15_133.cnf
s SATISFIABLE
c process-time: 1s 1.49 seconds
-----
c input_v3/product/cnf_noALO_v3/15x15_134.cnf
s SATISFIABLE
c process-time: 1s 0.69 seconds
-----
c input_v3/product/cnf_noALO_v3/15x15_135.cnf
s SATISFIABLE
c process-time: 0.34 seconds
-----
c input_v3/product/cnf_noALO_v3/15x15_136.cnf
s SATISFIABLE
c process-time: 0.38 seconds
-----
c input_v3/product/cnf_noALO_v3/15x15_137.cnf
s SATISFIABLE
c process-time: 1s 0.87 seconds
-----
c input_v3/product/cnf_noALO_v3/15x15_138.cnf
s SATISFIABLE
c process-time: 1s 0.60 seconds
-----
c input_v3/product/cnf_noALO_v3/15x15_139.cnf
s SATISFIABLE
c process-time: 0.28 seconds
-----
c input_v3/product/cnf_noALO_v3/15x15_140.cnf
s SATISFIABLE
c process-time: 0.09 seconds
-----
c input_v3/product/cnf_noALO_v3/15x15_141.cnf
s SATISFIABLE
c process-time: 1s 0.98 seconds
-----
c input_v3/product/cnf_noALO_v3/15x15_142.cnf
s SATISFIABLE
c process-time: 0.41 seconds
-----
c input_v3/product/cnf_noALO_v3/15x15_143.cnf
s SATISFIABLE
c process-time: 0.44 seconds
-----
c input_v3/product/cnf_noALO_v3/15x15_144.cnf
s SATISFIABLE
c process-time: 2s 1.68 seconds
-----
c input_v3/product/cnf_noALO_v3/15x15_145.cnf
s SATISFIABLE
c process-time: 0.04 seconds
-----
c input_v3/product/cnf_noALO_v3/15x20_307.cnf
s SATISFIABLE
c process-time: 8m 10s 489.58 seconds
-----
c input_v3/product/cnf_noALO_v3/15x20_308.cnf
s SATISFIABLE
c process-time: 33s 33.10 seconds
-----
c input_v3/product/cnf_noALO_v3/15x20_309.cnf
s SATISFIABLE
c process-time: 27m 19s 1639.31 seconds
-----
c input_v3/product/cnf_noALO_v3/15x20_310.cnf
s SATISFIABLE
c process-time: 18s 18.42 seconds
-----
c input_v3/product/cnf_noALO_v3/15x20_317.cnf
s SATISFIABLE
c process-time: 7s 6.98 seconds
-----
c input_v3/product/cnf_noALO_v3/15x20_318.cnf
s SATISFIABLE
c process-time: 7s 7.40 seconds
-----
c input_v3/product/cnf_noALO_v3/15x20_319.cnf
s SATISFIABLE
c process-time: 28m 37s 1717.32 seconds
-----
c input_v3/product/cnf_noALO_v3/15x20_320.cnf
s SATISFIABLE
c process-time: 1m 37s 97.41 seconds
-----
c input_v3/product/cnf_noALO_v3/17x17_100.cnf
s SATISFIABLE
c process-time: 15s 15.22 seconds
-----
c input_v3/product/cnf_noALO_v3/17x17_104.cnf
s SATISFIABLE
c process-time: 5s 4.81 seconds
-----
c input_v3/product/cnf_noALO_v3/17x17_109.cnf
s SATISFIABLE
c process-time: 2s 2.40 seconds
-----
c input_v3/product/cnf_noALO_v3/17x17_112.cnf
s SATISFIABLE
c process-time: 0.28 seconds
-----
c input_v3/product/cnf_noALO_v3/17x17_116.cnf
s SATISFIABLE
c process-time: 1s 0.57 seconds
-----
c input_v3/product/cnf_noALO_v3/17x17_120.cnf
s SATISFIABLE
c process-time: 47s 47.02 seconds
-----
c input_v3/product/cnf_noALO_v3/17x17_128.cnf
s SATISFIABLE
c process-time: 4s 3.69 seconds
-----
c input_v3/product/cnf_noALO_v3/17x17_136.cnf
s SATISFIABLE
c process-time: 0.19 seconds
-----
c input_v3/product/cnf_noALO_v3/17x17_138.cnf
s SATISFIABLE
c process-time: 27s 26.50 seconds
-----
c input_v3/product/cnf_noALO_v3/17x17_165.cnf
s SATISFIABLE
c process-time: 1s 1.29 seconds
-----
c input_v3/product/cnf_noALO_v3/17x17_166.cnf
s SATISFIABLE
c process-time: 17s 16.76 seconds
-----
c input_v3/product/cnf_noALO_v3/17x17_167.cnf
s SATISFIABLE
c process-time: 0.29 seconds
-----
c input_v3/product/cnf_noALO_v3/17x17_168.cnf
s SATISFIABLE
c process-time: 0.20 seconds
-----
c input_v3/product/cnf_noALO_v3/17x17_175.cnf
s SATISFIABLE
c process-time: 0.42 seconds
-----
c input_v3/product/cnf_noALO_v3/17x17_176.cnf
s SATISFIABLE
c process-time: 8m 18s 497.67 seconds
-----
c input_v3/product/cnf_noALO_v3/17x17_177.cnf
s SATISFIABLE
c process-time: 0.11 seconds
-----
c input_v3/product/cnf_noALO_v3/17x17_178.cnf
s SATISFIABLE
c process-time: 0.17 seconds
-----
c input_v3/product/cnf_noALO_v3/17x17_187.cnf
s SATISFIABLE
c process-time: 2s 1.64 seconds
-----
c input_v3/product/cnf_noALO_v3/17x17_188.cnf
s SATISFIABLE
c process-time: 2s 1.87 seconds
-----
c input_v3/product/cnf_noALO_v3/17x17_197.cnf
s SATISFIABLE
c process-time: 13s 12.53 seconds
-----
c input_v3/product/cnf_noALO_v3/17x17_198.cnf
s SATISFIABLE
c process-time: 1s 1.12 seconds
-----
c input_v3/product/cnf_noALO_v3/17x17_230.cnf
s SATISFIABLE
c process-time: 1s 1.20 seconds
-----
c input_v3/product/cnf_noALO_v3/17x17_240.cnf
s SATISFIABLE
c process-time: 1s 1.17 seconds
-----
c input_v3/product/cnf_noALO_v3/17x17_250.cnf
s SATISFIABLE
c process-time: 0.21 seconds
-----
c input_v3/product/cnf_noALO_v3/17x17_260.cnf
s SATISFIABLE
c process-time: 0.19 seconds
-----
c input_v3/product/cnf_noALO_v3/17x17_270.cnf
s SATISFIABLE
c process-time: 1s 0.74 seconds
-----
c input_v3/product/cnf_noALO_v3/17x17_429.cnf
s SATISFIABLE
c process-time: 0.08 seconds
-----
c input_v3/product/cnf_noALO_v3/17x17_439.cnf
s SATISFIABLE
c process-time: 30s 30.32 seconds
-----
c input_v3/product/cnf_noALO_v3/17x17_449.cnf
s SATISFIABLE
c process-time: 0.44 seconds
-----
c input_v3/product/cnf_noALO_v3/20x20_430.cnf
s SATISFIABLE
c process-time: 44s 43.68 seconds
-----
c input_v3/product/cnf_noALO_v3/20x20_440.cnf
c process-time: 29m 59s 1799.21 seconds
UNKNOWN
-----
c input_v3/product/cnf_noALO_v3/20x20_450.cnf
s SATISFIABLE
c process-time: 2m 12s 132.04 seconds
-----
c input_v3/product/cnf_noALO_v3/20x36_106.cnf
s SATISFIABLE
c process-time: 5m 41s 341.41 seconds
-----
c input_v3/product/cnf_noALO_v3/20x36_114.cnf
s SATISFIABLE
c process-time: 15m 18s 917.88 seconds
-----
c input_v3/product/cnf_noALO_v3/20x36_118.cnf
c process-time: 29m 59s 1799.28 seconds
UNKNOWN
-----
c input_v3/product/cnf_noALO_v3/20x36_130.cnf
c process-time: 29m 59s 1799.01 seconds
UNKNOWN
-----
c input_v3/product/cnf_noALO_v3/20x36_140.cnf
c process-time: 29m 59s 1799.25 seconds
UNKNOWN
-----
c input_v3/product/cnf_noALO_v3/20x36_149.cnf
c process-time: 29m 59s 1799.28 seconds
UNKNOWN
-----
c input_v3/product/cnf_noALO_v3/20x36_150.cnf
c process-time: 29m 59s 1798.65 seconds
UNKNOWN
-----
c input_v3/product/cnf_noALO_v3/20x36_159.cnf
c process-time: 29m 59s 1798.99 seconds
UNKNOWN
-----
c input_v3/product/cnf_noALO_v3/20x36_160.cnf
c process-time: 29m 59s 1798.67 seconds
UNKNOWN
-----
c input_v3/product/cnf_noALO_v3/20x36_170.cnf
c process-time: 29m 59s 1799.17 seconds
UNKNOWN
-----
c input_v3/product/cnf_noALO_v3/20x36_180.cnf
c process-time: 29m 59s 1799.10 seconds
UNKNOWN
-----
c input_v3/product/cnf_noALO_v3/20x36_210.cnf
c process-time: 29m 59s 1798.85 seconds
UNKNOWN
-----
c input_v3/product/cnf_noALO_v3/20x36_220.cnf
c process-time: 29m 59s 1799.15 seconds
UNKNOWN
-----
c input_v3/product/cnf_noALO_v3/25x25_60.cnf
s SATISFIABLE
c process-time: 33s 33.27 seconds
-----
c input_v3/product/cnf_noALO_v3/25x25_66.cnf
c process-time: 29m 59s 1799.43 seconds
UNKNOWN
-----
c input_v3/product/cnf_noALO_v3/25x25_72.cnf
s SATISFIABLE
c process-time: 17m 17s 1037.25 seconds
-----
c input_v3/product/cnf_noALO_v3/25x25_78.cnf
c process-time: 29m 59s 1799.17 seconds
UNKNOWN
-----
c input_v3/product/cnf_noALO_v3/25x42_110.cnf
s SATISFIABLE
c process-time: 1m 26s 85.71 seconds
-----
c input_v3/product/cnf_noALO_v3/35x48_190.cnf
c process-time: 29m 59s 1799.45 seconds
UNKNOWN
-----
c input_v3/product/cnf_noALO_v3/6x6_120.cnf
s SATISFIABLE
c process-time: 0.00 seconds
-----
c input_v3/product/cnf_noALO_v3/6x6_121.cnf
s SATISFIABLE
c process-time: 0.00 seconds
-----
c input_v3/product/cnf_noALO_v3/6x6_122.cnf
s SATISFIABLE
c process-time: 0.00 seconds
-----
c input_v3/product/cnf_noALO_v3/6x6_123.cnf
s SATISFIABLE
c process-time: 0.00 seconds
-----
c input_v3/product/cnf_noALO_v3/6x6_124.cnf
s SATISFIABLE
c process-time: 0.00 seconds
-----
c input_v3/product/cnf_noALO_v3/6x6_125.cnf
s SATISFIABLE
c process-time: 0.00 seconds
-----
c input_v3/product/cnf_noALO_v3/6x6_130.cnf
s SATISFIABLE
c process-time: 0.00 seconds
-----
c input_v3/product/cnf_noALO_v3/6x6_131.cnf
s SATISFIABLE
c process-time: 0.00 seconds
-----
c input_v3/product/cnf_noALO_v3/6x6_132.cnf
s SATISFIABLE
c process-time: 0.00 seconds
-----
c input_v3/product/cnf_noALO_v3/6x6_133.cnf
s SATISFIABLE
c process-time: 0.00 seconds
-----
c input_v3/product/cnf_noALO_v3/6x6_134.cnf
s SATISFIABLE
c process-time: 0.00 seconds
-----
c input_v3/product/cnf_noALO_v3/6x6_135.cnf
s SATISFIABLE
c process-time: 0.00 seconds
-----
c input_v3/product/cnf_noALO_v3/6x6_136.cnf
s SATISFIABLE
c process-time: 0.00 seconds
-----
c input_v3/product/cnf_noALO_v3/6x6_137.cnf
s SATISFIABLE
c process-time: 0.00 seconds
-----
c input_v3/product/cnf_noALO_v3/6x6_138.cnf
s SATISFIABLE
c process-time: 0.00 seconds
-----
c input_v3/product/cnf_noALO_v3/6x6_139.cnf
s SATISFIABLE
c process-time: 0.00 seconds
-----
c input_v3/product/cnf_noALO_v3/6x6_140.cnf
s SATISFIABLE
c process-time: 0.00 seconds
-----
c input_v3/product/cnf_noALO_v3/6x6_141.cnf
s SATISFIABLE
c process-time: 0.00 seconds
-----
c input_v3/product/cnf_noALO_v3/6x6_142.cnf
s SATISFIABLE
c process-time: 0.00 seconds
-----
c input_v3/product/cnf_noALO_v3/6x6_143.cnf
s SATISFIABLE
c process-time: 0.00 seconds
-----
c input_v3/product/cnf_noALO_v3/6x6_144.cnf
s SATISFIABLE
c process-time: 0.00 seconds
-----
c input_v3/product/cnf_noALO_v3/6x6_145.cnf
s SATISFIABLE
c process-time: 0.00 seconds
-----
c input_v3/product/cnf_noALO_v3/7x7_120.cnf
s SATISFIABLE
c process-time: 0.00 seconds
-----
c input_v3/product/cnf_noALO_v3/7x7_121.cnf
s SATISFIABLE
c process-time: 0.00 seconds
-----
c input_v3/product/cnf_noALO_v3/7x7_122.cnf
s SATISFIABLE
c process-time: 0.00 seconds
-----
c input_v3/product/cnf_noALO_v3/7x7_123.cnf
s SATISFIABLE
c process-time: 0.00 seconds
-----
c input_v3/product/cnf_noALO_v3/7x7_124.cnf
s SATISFIABLE
c process-time: 0.00 seconds
-----
c input_v3/product/cnf_noALO_v3/7x7_130.cnf
s SATISFIABLE
c process-time: 0.00 seconds
-----
c input_v3/product/cnf_noALO_v3/7x7_131.cnf
s SATISFIABLE
c process-time: 0.00 seconds
-----
c input_v3/product/cnf_noALO_v3/7x7_132.cnf
s SATISFIABLE
c process-time: 0.00 seconds
-----
c input_v3/product/cnf_noALO_v3/7x7_133.cnf
s SATISFIABLE
c process-time: 0.00 seconds
-----
c input_v3/product/cnf_noALO_v3/7x7_134.cnf
s SATISFIABLE
c process-time: 0.00 seconds
-----
c input_v3/product/cnf_noALO_v3/7x7_135.cnf
s SATISFIABLE
c process-time: 0.00 seconds
-----
c input_v3/product/cnf_noALO_v3/7x7_136.cnf
s SATISFIABLE
c process-time: 0.00 seconds
-----
c input_v3/product/cnf_noALO_v3/7x7_137.cnf
s SATISFIABLE
c process-time: 0.00 seconds
-----
c input_v3/product/cnf_noALO_v3/7x7_138.cnf
s SATISFIABLE
c process-time: 0.00 seconds
-----
c input_v3/product/cnf_noALO_v3/7x7_139.cnf
s SATISFIABLE
c process-time: 0.00 seconds
-----
c input_v3/product/cnf_noALO_v3/7x7_140.cnf
s SATISFIABLE
c process-time: 0.00 seconds
-----
c input_v3/product/cnf_noALO_v3/7x7_141.cnf
s SATISFIABLE
c process-time: 0.00 seconds
-----
c input_v3/product/cnf_noALO_v3/7x7_142.cnf
s SATISFIABLE
c process-time: 0.00 seconds
-----
c input_v3/product/cnf_noALO_v3/7x7_143.cnf
s SATISFIABLE
c process-time: 0.00 seconds
-----
c input_v3/product/cnf_noALO_v3/7x7_144.cnf
s SATISFIABLE
c process-time: 0.00 seconds
-----
c input_v3/product/cnf_noALO_v3/7x7_145.cnf
s SATISFIABLE
c process-time: 0.00 seconds
-----
c input_v3/product/cnf_noALO_v3/8x8_120.cnf
s SATISFIABLE
c process-time: 0.00 seconds
-----
c input_v3/product/cnf_noALO_v3/8x8_121.cnf
s SATISFIABLE
c process-time: 0.00 seconds
-----
c input_v3/product/cnf_noALO_v3/8x8_122.cnf
s SATISFIABLE
c process-time: 0.00 seconds
-----
c input_v3/product/cnf_noALO_v3/8x8_123.cnf
s SATISFIABLE
c process-time: 0.01 seconds
-----
c input_v3/product/cnf_noALO_v3/8x8_124.cnf
s SATISFIABLE
c process-time: 0.00 seconds
-----
c input_v3/product/cnf_noALO_v3/8x8_130.cnf
s SATISFIABLE
c process-time: 0.00 seconds
-----
c input_v3/product/cnf_noALO_v3/8x8_131.cnf
s SATISFIABLE
c process-time: 0.00 seconds
-----
c input_v3/product/cnf_noALO_v3/8x8_132.cnf
s SATISFIABLE
c process-time: 0.00 seconds
-----
c input_v3/product/cnf_noALO_v3/8x8_133.cnf
s SATISFIABLE
c process-time: 0.00 seconds
-----
c input_v3/product/cnf_noALO_v3/8x8_134.cnf
s SATISFIABLE
c process-time: 0.00 seconds
-----
c input_v3/product/cnf_noALO_v3/8x8_135.cnf
s SATISFIABLE
c process-time: 0.00 seconds
-----
c input_v3/product/cnf_noALO_v3/8x8_136.cnf
s SATISFIABLE
c process-time: 0.00 seconds
-----
c input_v3/product/cnf_noALO_v3/8x8_137.cnf
s SATISFIABLE
c process-time: 0.00 seconds
-----
c input_v3/product/cnf_noALO_v3/8x8_138.cnf
s SATISFIABLE
c process-time: 0.00 seconds
-----
c input_v3/product/cnf_noALO_v3/8x8_139.cnf
s SATISFIABLE
c process-time: 0.00 seconds
-----
c input_v3/product/cnf_noALO_v3/8x8_140.cnf
s SATISFIABLE
c process-time: 0.00 seconds
-----
c input_v3/product/cnf_noALO_v3/8x8_141.cnf
s SATISFIABLE
c process-time: 0.00 seconds
-----
c input_v3/product/cnf_noALO_v3/8x8_142.cnf
s SATISFIABLE
c process-time: 0.00 seconds
-----
c input_v3/product/cnf_noALO_v3/8x8_143.cnf
s SATISFIABLE
c process-time: 0.00 seconds
-----
c input_v3/product/cnf_noALO_v3/8x8_144.cnf
s SATISFIABLE
c process-time: 0.01 seconds
-----
c input_v3/product/cnf_noALO_v3/8x8_145.cnf
s SATISFIABLE
c process-time: 0.01 seconds
-----
c input_v3/product/cnf_noALO_v3/9x9_120.cnf
s SATISFIABLE
c process-time: 0.00 seconds
-----
c input_v3/product/cnf_noALO_v3/9x9_121.cnf
s SATISFIABLE
c process-time: 0.01 seconds
-----
c input_v3/product/cnf_noALO_v3/9x9_122.cnf
s SATISFIABLE
c process-time: 0.01 seconds
-----
c input_v3/product/cnf_noALO_v3/9x9_123.cnf
s SATISFIABLE
c process-time: 0.01 seconds
-----
c input_v3/product/cnf_noALO_v3/9x9_124.cnf
s SATISFIABLE
c process-time: 0.01 seconds
-----
c input_v3/product/cnf_noALO_v3/9x9_130.cnf
s SATISFIABLE
c process-time: 0.01 seconds
-----
c input_v3/product/cnf_noALO_v3/9x9_131.cnf
s SATISFIABLE
c process-time: 0.00 seconds
-----
c input_v3/product/cnf_noALO_v3/9x9_132.cnf
s SATISFIABLE
c process-time: 0.00 seconds
-----
c input_v3/product/cnf_noALO_v3/9x9_133.cnf
s SATISFIABLE
c process-time: 0.00 seconds
-----
c input_v3/product/cnf_noALO_v3/9x9_134.cnf
s SATISFIABLE
c process-time: 0.00 seconds
-----
c input_v3/product/cnf_noALO_v3/9x9_135.cnf
s SATISFIABLE
c process-time: 0.00 seconds
-----
c input_v3/product/cnf_noALO_v3/9x9_136.cnf
s SATISFIABLE
c process-time: 0.01 seconds
-----
c input_v3/product/cnf_noALO_v3/9x9_137.cnf
s SATISFIABLE
c process-time: 0.01 seconds
-----
c input_v3/product/cnf_noALO_v3/9x9_138.cnf
s SATISFIABLE
c process-time: 0.01 seconds
-----
c input_v3/product/cnf_noALO_v3/9x9_139.cnf
s SATISFIABLE
c process-time: 0.01 seconds
-----
c input_v3/product/cnf_noALO_v3/9x9_140.cnf
s SATISFIABLE
c process-time: 0.01 seconds
-----
c input_v3/product/cnf_noALO_v3/9x9_141.cnf
s SATISFIABLE
c process-time: 0.00 seconds
-----
c input_v3/product/cnf_noALO_v3/9x9_142.cnf
s SATISFIABLE
c process-time: 0.01 seconds
-----
c input_v3/product/cnf_noALO_v3/9x9_143.cnf
s SATISFIABLE
c process-time: 0.01 seconds
-----
c input_v3/product/cnf_noALO_v3/9x9_144.cnf
s SATISFIABLE
c process-time: 0.01 seconds
-----
c input_v3/product/cnf_noALO_v3/9x9_145.cnf
s SATISFIABLE
c process-time: 0.01 seconds
-----
UNKNOWN
-----

